NAME           C:\Bruker\Hvattum\knapsack\Problems\class4\100-10-12.mps
ROWS
 N  OBJ
 L  CONSTR1
 L  CONSTR2
 L  CONSTR3
 L  CONSTR4
 L  CONSTR5
 L  CONSTR6
 L  CONSTR7
 L  CONSTR8
 L  CONSTR9
 L  CONSTR10
COLUMNS
    INT0001   'MARKER'  'INTORG'
    X1        OBJ       828
    X1        CONSTR1   812
    X1        CONSTR2   692
    X1        CONSTR3   523
    X1        CONSTR4   24
    X1        CONSTR5   31
    X1        CONSTR6   365
    X1        CONSTR7   35
    X1        CONSTR8   379
    X1        CONSTR9   614
    X1        CONSTR10  760
    X2        OBJ       847
    X2        CONSTR1   823
    X2        CONSTR2   326
    X2        CONSTR3   62
    X2        CONSTR4   980
    X2        CONSTR5   195
    X2        CONSTR6   848
    X2        CONSTR7   800
    X2        CONSTR8   525
    X2        CONSTR9   188
    X2        CONSTR10  391
    X3        OBJ       661
    X3        CONSTR1   11
    X3        CONSTR2   865
    X3        CONSTR3   968
    X3        CONSTR4   777
    X3        CONSTR5   753
    X3        CONSTR6   960
    X3        CONSTR7   622
    X3        CONSTR8   653
    X3        CONSTR9   230
    X3        CONSTR10  244
    X4        OBJ       821
    X4        CONSTR1   101
    X4        CONSTR2   632
    X4        CONSTR3   286
    X4        CONSTR4   855
    X4        CONSTR5   258
    X4        CONSTR6   107
    X4        CONSTR7   334
    X4        CONSTR8   170
    X4        CONSTR9   606
    X4        CONSTR10  531
    X5        OBJ       991
    X5        CONSTR1   635
    X5        CONSTR2   579
    X5        CONSTR3   502
    X5        CONSTR4   775
    X5        CONSTR5   505
    X5        CONSTR6   516
    X5        CONSTR7   837
    X5        CONSTR8   117
    X5        CONSTR9   743
    X5        CONSTR10  415
    X6        OBJ       474
    X6        CONSTR1   908
    X6        CONSTR2   751
    X6        CONSTR3   399
    X6        CONSTR4   137
    X6        CONSTR5   428
    X6        CONSTR6   180
    X6        CONSTR7   145
    X6        CONSTR8   247
    X6        CONSTR9   614
    X6        CONSTR10  406
    X7        OBJ       801
    X7        CONSTR1   472
    X7        CONSTR2   793
    X7        CONSTR3   587
    X7        CONSTR4   52
    X7        CONSTR5   369
    X7        CONSTR6   328
    X7        CONSTR7   121
    X7        CONSTR8   970
    X7        CONSTR9   765
    X7        CONSTR10  539
    X8        OBJ       706
    X8        CONSTR1   614
    X8        CONSTR2   929
    X8        CONSTR3   199
    X8        CONSTR4   301
    X8        CONSTR5   620
    X8        CONSTR6   910
    X8        CONSTR7   617
    X8        CONSTR8   328
    X8        CONSTR9   269
    X8        CONSTR10  104
    X9        OBJ       543
    X9        CONSTR1   501
    X9        CONSTR2   425
    X9        CONSTR3   648
    X9        CONSTR4   81
    X9        CONSTR5   10
    X9        CONSTR6   417
    X9        CONSTR7   66
    X9        CONSTR8   150
    X9        CONSTR9   944
    X9        CONSTR10  904
    X10       OBJ       607
    X10       CONSTR1   804
    X10       CONSTR2   303
    X10       CONSTR3   249
    X10       CONSTR4   905
    X10       CONSTR5   48
    X10       CONSTR6   526
    X10       CONSTR7   114
    X10       CONSTR8   394
    X10       CONSTR9   360
    X10       CONSTR10  512
    X11       OBJ       849
    X11       CONSTR1   187
    X11       CONSTR2   531
    X11       CONSTR3   352
    X11       CONSTR4   342
    X11       CONSTR5   464
    X11       CONSTR6   693
    X11       CONSTR7   250
    X11       CONSTR8   957
    X11       CONSTR9   158
    X11       CONSTR10  741
    X12       OBJ       802
    X12       CONSTR1   987
    X12       CONSTR2   933
    X12       CONSTR3   268
    X12       CONSTR4   992
    X12       CONSTR5   889
    X12       CONSTR6   105
    X12       CONSTR7   771
    X12       CONSTR8   975
    X12       CONSTR9   186
    X12       CONSTR10  918
    X13       OBJ       722
    X13       CONSTR1   82
    X13       CONSTR2   234
    X13       CONSTR3   612
    X13       CONSTR4   168
    X13       CONSTR5   838
    X13       CONSTR6   819
    X13       CONSTR7   548
    X13       CONSTR8   836
    X13       CONSTR9   7
    X13       CONSTR10  99
    X14       OBJ       563
    X14       CONSTR1   74
    X14       CONSTR2   84
    X14       CONSTR3   904
    X14       CONSTR4   254
    X14       CONSTR5   106
    X14       CONSTR6   275
    X14       CONSTR7   565
    X14       CONSTR8   862
    X14       CONSTR9   746
    X14       CONSTR10  63
    X15       OBJ       904
    X15       CONSTR1   336
    X15       CONSTR2   131
    X15       CONSTR3   293
    X15       CONSTR4   638
    X15       CONSTR5   587
    X15       CONSTR6   310
    X15       CONSTR7   644
    X15       CONSTR8   699
    X15       CONSTR9   57
    X15       CONSTR10  501
    X16       OBJ       565
    X16       CONSTR1   512
    X16       CONSTR2   408
    X16       CONSTR3   872
    X16       CONSTR4   534
    X16       CONSTR5   282
    X16       CONSTR6   951
    X16       CONSTR7   408
    X16       CONSTR8   57
    X16       CONSTR9   308
    X16       CONSTR10  703
    X17       OBJ       1084
    X17       CONSTR1   572
    X17       CONSTR2   852
    X17       CONSTR3   396
    X17       CONSTR4   661
    X17       CONSTR5   424
    X17       CONSTR6   811
    X17       CONSTR7   819
    X17       CONSTR8   964
    X17       CONSTR9   722
    X17       CONSTR10  934
    X18       OBJ       805
    X18       CONSTR1   818
    X18       CONSTR2   913
    X18       CONSTR3   500
    X18       CONSTR4   726
    X18       CONSTR5   771
    X18       CONSTR6   590
    X18       CONSTR7   330
    X18       CONSTR8   921
    X18       CONSTR9   359
    X18       CONSTR10  349
    X19       OBJ       837
    X19       CONSTR1   599
    X19       CONSTR2   288
    X19       CONSTR3   186
    X19       CONSTR4   129
    X19       CONSTR5   958
    X19       CONSTR6   995
    X19       CONSTR7   411
    X19       CONSTR8   835
    X19       CONSTR9   687
    X19       CONSTR10  213
    X20       OBJ       481
    X20       CONSTR1   792
    X20       CONSTR2   419
    X20       CONSTR3   629
    X20       CONSTR4   541
    X20       CONSTR5   475
    X20       CONSTR6   536
    X20       CONSTR7   423
    X20       CONSTR8   7
    X20       CONSTR9   309
    X20       CONSTR10  210
    X21       OBJ       612
    X21       CONSTR1   926
    X21       CONSTR2   23
    X21       CONSTR3   982
    X21       CONSTR4   618
    X21       CONSTR5   112
    X21       CONSTR6   916
    X21       CONSTR7   143
    X21       CONSTR8   242
    X21       CONSTR9   301
    X21       CONSTR10  151
    X22       OBJ       622
    X22       CONSTR1   660
    X22       CONSTR2   507
    X22       CONSTR3   626
    X22       CONSTR4   658
    X22       CONSTR5   100
    X22       CONSTR6   730
    X22       CONSTR7   332
    X22       CONSTR8   994
    X22       CONSTR9   813
    X22       CONSTR10  430
    X23       OBJ       689
    X23       CONSTR1   270
    X23       CONSTR2   477
    X23       CONSTR3   529
    X23       CONSTR4   962
    X23       CONSTR5   56
    X23       CONSTR6   341
    X23       CONSTR7   538
    X23       CONSTR8   810
    X23       CONSTR9   817
    X23       CONSTR10  531
    X24       OBJ       948
    X24       CONSTR1   465
    X24       CONSTR2   623
    X24       CONSTR3   554
    X24       CONSTR4   847
    X24       CONSTR5   608
    X24       CONSTR6   652
    X24       CONSTR7   112
    X24       CONSTR8   423
    X24       CONSTR9   369
    X24       CONSTR10  605
    X25       OBJ       865
    X25       CONSTR1   296
    X25       CONSTR2   272
    X25       CONSTR3   593
    X25       CONSTR4   470
    X25       CONSTR5   1000
    X25       CONSTR6   911
    X25       CONSTR7   627
    X25       CONSTR8   1000
    X25       CONSTR9   268
    X25       CONSTR10  368
    X26       OBJ       827
    X26       CONSTR1   12
    X26       CONSTR2   750
    X26       CONSTR3   544
    X26       CONSTR4   897
    X26       CONSTR5   584
    X26       CONSTR6   746
    X26       CONSTR7   977
    X26       CONSTR8   840
    X26       CONSTR9   510
    X26       CONSTR10  793
    X27       OBJ       745
    X27       CONSTR1   373
    X27       CONSTR2   411
    X27       CONSTR3   123
    X27       CONSTR4   525
    X27       CONSTR5   32
    X27       CONSTR6   742
    X27       CONSTR7   964
    X27       CONSTR8   327
    X27       CONSTR9   632
    X27       CONSTR10  130
    X28       OBJ       828
    X28       CONSTR1   787
    X28       CONSTR2   895
    X28       CONSTR3   396
    X28       CONSTR4   775
    X28       CONSTR5   935
    X28       CONSTR6   462
    X28       CONSTR7   677
    X28       CONSTR8   340
    X28       CONSTR9   701
    X28       CONSTR10  84
    X29       OBJ       931
    X29       CONSTR1   4
    X29       CONSTR2   229
    X29       CONSTR3   971
    X29       CONSTR4   703
    X29       CONSTR5   245
    X29       CONSTR6   996
    X29       CONSTR7   702
    X29       CONSTR8   743
    X29       CONSTR9   14
    X29       CONSTR10  254
    X30       OBJ       649
    X30       CONSTR1   674
    X30       CONSTR2   53
    X30       CONSTR3   947
    X30       CONSTR4   426
    X30       CONSTR5   797
    X30       CONSTR6   562
    X30       CONSTR7   300
    X30       CONSTR8   240
    X30       CONSTR9   416
    X30       CONSTR10  922
    X31       OBJ       732
    X31       CONSTR1   509
    X31       CONSTR2   503
    X31       CONSTR3   977
    X31       CONSTR4   758
    X31       CONSTR5   439
    X31       CONSTR6   975
    X31       CONSTR7   961
    X31       CONSTR8   563
    X31       CONSTR9   583
    X31       CONSTR10  399
    X32       OBJ       752
    X32       CONSTR1   423
    X32       CONSTR2   273
    X32       CONSTR3   702
    X32       CONSTR4   520
    X32       CONSTR5   105
    X32       CONSTR6   529
    X32       CONSTR7   130
    X32       CONSTR8   736
    X32       CONSTR9   418
    X32       CONSTR10  151
    X33       OBJ       749
    X33       CONSTR1   326
    X33       CONSTR2   8
    X33       CONSTR3   576
    X33       CONSTR4   425
    X33       CONSTR5   230
    X33       CONSTR6   616
    X33       CONSTR7   288
    X33       CONSTR8   358
    X33       CONSTR9   503
    X33       CONSTR10  703
    X34       OBJ       806
    X34       CONSTR1   361
    X34       CONSTR2   852
    X34       CONSTR3   113
    X34       CONSTR4   51
    X34       CONSTR5   790
    X34       CONSTR6   770
    X34       CONSTR7   722
    X34       CONSTR8   31
    X34       CONSTR9   468
    X34       CONSTR10  793
    X35       OBJ       707
    X35       CONSTR1   664
    X35       CONSTR2   868
    X35       CONSTR3   591
    X35       CONSTR4   965
    X35       CONSTR5   2
    X35       CONSTR6   278
    X35       CONSTR7   540
    X35       CONSTR8   878
    X35       CONSTR9   194
    X35       CONSTR10  442
    X36       OBJ       615
    X36       CONSTR1   527
    X36       CONSTR2   564
    X36       CONSTR3   856
    X36       CONSTR4   66
    X36       CONSTR5   792
    X36       CONSTR6   723
    X36       CONSTR7   540
    X36       CONSTR8   177
    X36       CONSTR9   935
    X36       CONSTR10  445
    X37       OBJ       602
    X37       CONSTR1   813
    X37       CONSTR2   860
    X37       CONSTR3   570
    X37       CONSTR4   360
    X37       CONSTR5   325
    X37       CONSTR6   1
    X37       CONSTR7   951
    X37       CONSTR8   109
    X37       CONSTR9   620
    X37       CONSTR10  422
    X38       OBJ       841
    X38       CONSTR1   914
    X38       CONSTR2   749
    X38       CONSTR3   246
    X38       CONSTR4   789
    X38       CONSTR5   993
    X38       CONSTR6   77
    X38       CONSTR7   662
    X38       CONSTR8   293
    X38       CONSTR9   721
    X38       CONSTR10  73
    X39       OBJ       1060
    X39       CONSTR1   534
    X39       CONSTR2   865
    X39       CONSTR3   840
    X39       CONSTR4   862
    X39       CONSTR5   718
    X39       CONSTR6   348
    X39       CONSTR7   255
    X39       CONSTR8   122
    X39       CONSTR9   846
    X39       CONSTR10  225
    X40       OBJ       881
    X40       CONSTR1   441
    X40       CONSTR2   143
    X40       CONSTR3   113
    X40       CONSTR4   876
    X40       CONSTR5   848
    X40       CONSTR6   771
    X40       CONSTR7   858
    X40       CONSTR8   519
    X40       CONSTR9   127
    X40       CONSTR10  563
    X41       OBJ       584
    X41       CONSTR1   19
    X41       CONSTR2   337
    X41       CONSTR3   875
    X41       CONSTR4   183
    X41       CONSTR5   272
    X41       CONSTR6   186
    X41       CONSTR7   568
    X41       CONSTR8   632
    X41       CONSTR9   828
    X41       CONSTR10  505
    X42       OBJ       788
    X42       CONSTR1   758
    X42       CONSTR2   516
    X42       CONSTR3   167
    X42       CONSTR4   347
    X42       CONSTR5   209
    X42       CONSTR6   37
    X42       CONSTR7   869
    X42       CONSTR8   750
    X42       CONSTR9   390
    X42       CONSTR10  880
    X43       OBJ       530
    X43       CONSTR1   110
    X43       CONSTR2   161
    X43       CONSTR3   241
    X43       CONSTR4   369
    X43       CONSTR5   194
    X43       CONSTR6   296
    X43       CONSTR7   398
    X43       CONSTR8   737
    X43       CONSTR9   734
    X43       CONSTR10  723
    X44       OBJ       688
    X44       CONSTR1   475
    X44       CONSTR2   989
    X44       CONSTR3   317
    X44       CONSTR4   440
    X44       CONSTR5   677
    X44       CONSTR6   396
    X44       CONSTR7   743
    X44       CONSTR8   449
    X44       CONSTR9   592
    X44       CONSTR10  547
    X45       OBJ       985
    X45       CONSTR1   758
    X45       CONSTR2   951
    X45       CONSTR3   148
    X45       CONSTR4   878
    X45       CONSTR5   527
    X45       CONSTR6   831
    X45       CONSTR7   516
    X45       CONSTR8   500
    X45       CONSTR9   611
    X45       CONSTR10  13
    X46       OBJ       863
    X46       CONSTR1   934
    X46       CONSTR2   619
    X46       CONSTR3   143
    X46       CONSTR4   110
    X46       CONSTR5   284
    X46       CONSTR6   292
    X46       CONSTR7   866
    X46       CONSTR8   200
    X46       CONSTR9   41
    X46       CONSTR10  840
    X47       OBJ       666
    X47       CONSTR1   439
    X47       CONSTR2   717
    X47       CONSTR3   967
    X47       CONSTR4   854
    X47       CONSTR5   770
    X47       CONSTR6   662
    X47       CONSTR7   187
    X47       CONSTR8   845
    X47       CONSTR9   184
    X47       CONSTR10  825
    X48       OBJ       986
    X48       CONSTR1   646
    X48       CONSTR2   705
    X48       CONSTR3   644
    X48       CONSTR4   865
    X48       CONSTR5   8
    X48       CONSTR6   735
    X48       CONSTR7   898
    X48       CONSTR8   667
    X48       CONSTR9   687
    X48       CONSTR10  84
    X49       OBJ       889
    X49       CONSTR1   220
    X49       CONSTR2   716
    X49       CONSTR3   515
    X49       CONSTR4   973
    X49       CONSTR5   307
    X49       CONSTR6   888
    X49       CONSTR7   831
    X49       CONSTR8   692
    X49       CONSTR9   278
    X49       CONSTR10  942
    X50       OBJ       701
    X50       CONSTR1   627
    X50       CONSTR2   861
    X50       CONSTR3   252
    X50       CONSTR4   931
    X50       CONSTR5   138
    X50       CONSTR6   755
    X50       CONSTR7   527
    X50       CONSTR8   663
    X50       CONSTR9   858
    X50       CONSTR10  178
    X51       OBJ       614
    X51       CONSTR1   969
    X51       CONSTR2   593
    X51       CONSTR3   64
    X51       CONSTR4   790
    X51       CONSTR5   890
    X51       CONSTR6   916
    X51       CONSTR7   278
    X51       CONSTR8   19
    X51       CONSTR9   284
    X51       CONSTR10  677
    X52       OBJ       893
    X52       CONSTR1   299
    X52       CONSTR2   883
    X52       CONSTR3   768
    X52       CONSTR4   581
    X52       CONSTR5   753
    X52       CONSTR6   243
    X52       CONSTR7   372
    X52       CONSTR8   160
    X52       CONSTR9   947
    X52       CONSTR10  13
    X53       OBJ       587
    X53       CONSTR1   993
    X53       CONSTR2   406
    X53       CONSTR3   901
    X53       CONSTR4   556
    X53       CONSTR5   899
    X53       CONSTR6   365
    X53       CONSTR7   250
    X53       CONSTR8   312
    X53       CONSTR9   30
    X53       CONSTR10  88
    X54       OBJ       709
    X54       CONSTR1   148
    X54       CONSTR2   195
    X54       CONSTR3   441
    X54       CONSTR4   535
    X54       CONSTR5   970
    X54       CONSTR6   411
    X54       CONSTR7   728
    X54       CONSTR8   343
    X54       CONSTR9   95
    X54       CONSTR10  742
    X55       OBJ       669
    X55       CONSTR1   742
    X55       CONSTR2   129
    X55       CONSTR3   883
    X55       CONSTR4   786
    X55       CONSTR5   525
    X55       CONSTR6   714
    X55       CONSTR7   706
    X55       CONSTR8   278
    X55       CONSTR9   471
    X55       CONSTR10  232
    X56       OBJ       627
    X56       CONSTR1   22
    X56       CONSTR2   480
    X56       CONSTR3   516
    X56       CONSTR4   410
    X56       CONSTR5   691
    X56       CONSTR6   956
    X56       CONSTR7   863
    X56       CONSTR8   134
    X56       CONSTR9   368
    X56       CONSTR10  497
    X57       OBJ       657
    X57       CONSTR1   392
    X57       CONSTR2   687
    X57       CONSTR3   897
    X57       CONSTR4   542
    X57       CONSTR5   406
    X57       CONSTR6   933
    X57       CONSTR7   907
    X57       CONSTR8   754
    X57       CONSTR9   45
    X57       CONSTR10  452
    X58       OBJ       662
    X58       CONSTR1   979
    X58       CONSTR2   912
    X58       CONSTR3   163
    X58       CONSTR4   535
    X58       CONSTR5   444
    X58       CONSTR6   693
    X58       CONSTR7   375
    X58       CONSTR8   878
    X58       CONSTR9   470
    X58       CONSTR10  418
    X59       OBJ       854
    X59       CONSTR1   311
    X59       CONSTR2   921
    X59       CONSTR3   782
    X59       CONSTR4   492
    X59       CONSTR5   864
    X59       CONSTR6   143
    X59       CONSTR7   73
    X59       CONSTR8   525
    X59       CONSTR9   899
    X59       CONSTR10  708
    X60       OBJ       739
    X60       CONSTR1   156
    X60       CONSTR2   420
    X60       CONSTR3   916
    X60       CONSTR4   426
    X60       CONSTR5   722
    X60       CONSTR6   363
    X60       CONSTR7   854
    X60       CONSTR8   23
    X60       CONSTR9   872
    X60       CONSTR10  609
    X61       OBJ       737
    X61       CONSTR1   619
    X61       CONSTR2   803
    X61       CONSTR3   113
    X61       CONSTR4   873
    X61       CONSTR5   695
    X61       CONSTR6   847
    X61       CONSTR7   226
    X61       CONSTR8   472
    X61       CONSTR9   833
    X61       CONSTR10  76
    X62       OBJ       562
    X62       CONSTR1   143
    X62       CONSTR2   485
    X62       CONSTR3   571
    X62       CONSTR4   466
    X62       CONSTR5   414
    X62       CONSTR6   514
    X62       CONSTR7   622
    X62       CONSTR8   199
    X62       CONSTR9   164
    X62       CONSTR10  808
    X63       OBJ       877
    X63       CONSTR1   424
    X63       CONSTR2   111
    X63       CONSTR3   179
    X63       CONSTR4   704
    X63       CONSTR5   569
    X63       CONSTR6   196
    X63       CONSTR7   69
    X63       CONSTR8   724
    X63       CONSTR9   591
    X63       CONSTR10  310
    X64       OBJ       542
    X64       CONSTR1   645
    X64       CONSTR2   839
    X64       CONSTR3   145
    X64       CONSTR4   102
    X64       CONSTR5   973
    X64       CONSTR6   747
    X64       CONSTR7   17
    X64       CONSTR8   601
    X64       CONSTR9   521
    X64       CONSTR10  764
    X65       OBJ       860
    X65       CONSTR1   202
    X65       CONSTR2   515
    X65       CONSTR3   679
    X65       CONSTR4   790
    X65       CONSTR5   299
    X65       CONSTR6   933
    X65       CONSTR7   907
    X65       CONSTR8   744
    X65       CONSTR9   443
    X65       CONSTR10  549
    X66       OBJ       793
    X66       CONSTR1   751
    X66       CONSTR2   436
    X66       CONSTR3   637
    X66       CONSTR4   611
    X66       CONSTR5   640
    X66       CONSTR6   593
    X66       CONSTR7   569
    X66       CONSTR8   334
    X66       CONSTR9   872
    X66       CONSTR10  774
    X67       OBJ       833
    X67       CONSTR1   500
    X67       CONSTR2   593
    X67       CONSTR3   170
    X67       CONSTR4   176
    X67       CONSTR5   135
    X67       CONSTR6   681
    X67       CONSTR7   91
    X67       CONSTR8   611
    X67       CONSTR9   749
    X67       CONSTR10  618
    X68       OBJ       1088
    X68       CONSTR1   570
    X68       CONSTR2   215
    X68       CONSTR3   121
    X68       CONSTR4   980
    X68       CONSTR5   971
    X68       CONSTR6   63
    X68       CONSTR7   629
    X68       CONSTR8   850
    X68       CONSTR9   857
    X68       CONSTR10  911
    X69       OBJ       1123
    X69       CONSTR1   421
    X69       CONSTR2   959
    X69       CONSTR3   779
    X69       CONSTR4   656
    X69       CONSTR5   132
    X69       CONSTR6   876
    X69       CONSTR7   481
    X69       CONSTR8   864
    X69       CONSTR9   999
    X69       CONSTR10  103
    X70       OBJ       496
    X70       CONSTR1   587
    X70       CONSTR2   437
    X70       CONSTR3   244
    X70       CONSTR4   184
    X70       CONSTR5   686
    X70       CONSTR6   540
    X70       CONSTR7   175
    X70       CONSTR8   63
    X70       CONSTR9   855
    X70       CONSTR10  756
    X71       OBJ       888
    X71       CONSTR1   87
    X71       CONSTR2   998
    X71       CONSTR3   197
    X71       CONSTR4   714
    X71       CONSTR5   888
    X71       CONSTR6   649
    X71       CONSTR7   560
    X71       CONSTR8   649
    X71       CONSTR9   608
    X71       CONSTR10  459
    X72       OBJ       567
    X72       CONSTR1   285
    X72       CONSTR2   395
    X72       CONSTR3   417
    X72       CONSTR4   353
    X72       CONSTR5   384
    X72       CONSTR6   491
    X72       CONSTR7   357
    X72       CONSTR8   574
    X72       CONSTR9   713
    X72       CONSTR10  429
    X73       OBJ       662
    X73       CONSTR1   234
    X73       CONSTR2   597
    X73       CONSTR3   534
    X73       CONSTR4   455
    X73       CONSTR5   291
    X73       CONSTR6   876
    X73       CONSTR7   657
    X73       CONSTR8   480
    X73       CONSTR9   241
    X73       CONSTR10  365
    X74       OBJ       561
    X74       CONSTR1   58
    X74       CONSTR2   905
    X74       CONSTR3   364
    X74       CONSTR4   36
    X74       CONSTR5   856
    X74       CONSTR6   337
    X74       CONSTR7   461
    X74       CONSTR8   637
    X74       CONSTR9   13
    X74       CONSTR10  824
    X75       OBJ       561
    X75       CONSTR1   189
    X75       CONSTR2   814
    X75       CONSTR3   717
    X75       CONSTR4   26
    X75       CONSTR5   309
    X75       CONSTR6   574
    X75       CONSTR7   624
    X75       CONSTR8   438
    X75       CONSTR9   970
    X75       CONSTR10  137
    X76       OBJ       732
    X76       CONSTR1   667
    X76       CONSTR2   755
    X76       CONSTR3   538
    X76       CONSTR4   948
    X76       CONSTR5   316
    X76       CONSTR6   10
    X76       CONSTR7   867
    X76       CONSTR8   227
    X76       CONSTR9   797
    X76       CONSTR10  973
    X77       OBJ       816
    X77       CONSTR1   949
    X77       CONSTR2   932
    X77       CONSTR3   301
    X77       CONSTR4   58
    X77       CONSTR5   368
    X77       CONSTR6   135
    X77       CONSTR7   746
    X77       CONSTR8   966
    X77       CONSTR9   540
    X77       CONSTR10  765
    X78       OBJ       888
    X78       CONSTR1   818
    X78       CONSTR2   642
    X78       CONSTR3   877
    X78       CONSTR4   45
    X78       CONSTR5   403
    X78       CONSTR6   929
    X78       CONSTR7   97
    X78       CONSTR8   987
    X78       CONSTR9   368
    X78       CONSTR10  985
    X79       OBJ       633
    X79       CONSTR1   325
    X79       CONSTR2   425
    X79       CONSTR3   384
    X79       CONSTR4   15
    X79       CONSTR5   206
    X79       CONSTR6   20
    X79       CONSTR7   499
    X79       CONSTR8   755
    X79       CONSTR9   903
    X79       CONSTR10  129
    X80       OBJ       680
    X80       CONSTR1   978
    X80       CONSTR2   536
    X80       CONSTR3   932
    X80       CONSTR4   591
    X80       CONSTR5   983
    X80       CONSTR6   745
    X80       CONSTR7   205
    X80       CONSTR8   251
    X80       CONSTR9   231
    X80       CONSTR10  526
    X81       OBJ       1148
    X81       CONSTR1   843
    X81       CONSTR2   911
    X81       CONSTR3   767
    X81       CONSTR4   470
    X81       CONSTR5   297
    X81       CONSTR6   851
    X81       CONSTR7   725
    X81       CONSTR8   767
    X81       CONSTR9   897
    X81       CONSTR10  967
    X82       OBJ       772
    X82       CONSTR1   340
    X82       CONSTR2   375
    X82       CONSTR3   186
    X82       CONSTR4   820
    X82       CONSTR5   421
    X82       CONSTR6   307
    X82       CONSTR7   238
    X82       CONSTR8   948
    X82       CONSTR9   365
    X82       CONSTR10  733
    X83       OBJ       890
    X83       CONSTR1   149
    X83       CONSTR2   592
    X83       CONSTR3   903
    X83       CONSTR4   351
    X83       CONSTR5   676
    X83       CONSTR6   759
    X83       CONSTR7   166
    X83       CONSTR8   258
    X83       CONSTR9   867
    X83       CONSTR10  434
    X84       OBJ       532
    X84       CONSTR1   411
    X84       CONSTR2   719
    X84       CONSTR3   165
    X84       CONSTR4   199
    X84       CONSTR5   879
    X84       CONSTR6   909
    X84       CONSTR7   23
    X84       CONSTR8   551
    X84       CONSTR9   286
    X84       CONSTR10  875
    X85       OBJ       609
    X85       CONSTR1   365
    X85       CONSTR2   162
    X85       CONSTR3   997
    X85       CONSTR4   600
    X85       CONSTR5   460
    X85       CONSTR6   727
    X85       CONSTR7   297
    X85       CONSTR8   782
    X85       CONSTR9   345
    X85       CONSTR10  38
    X86       OBJ       658
    X86       CONSTR1   636
    X86       CONSTR2   609
    X86       CONSTR3   509
    X86       CONSTR4   599
    X86       CONSTR5   579
    X86       CONSTR6   646
    X86       CONSTR7   308
    X86       CONSTR8   316
    X86       CONSTR9   839
    X86       CONSTR10  555
    X87       OBJ       824
    X87       CONSTR1   164
    X87       CONSTR2   445
    X87       CONSTR3   320
    X87       CONSTR4   1000
    X87       CONSTR5   139
    X87       CONSTR6   588
    X87       CONSTR7   235
    X87       CONSTR8   197
    X87       CONSTR9   380
    X87       CONSTR10  701
    X88       OBJ       900
    X88       CONSTR1   206
    X88       CONSTR2   709
    X88       CONSTR3   88
    X88       CONSTR4   230
    X88       CONSTR5   813
    X88       CONSTR6   706
    X88       CONSTR7   556
    X88       CONSTR8   435
    X88       CONSTR9   331
    X88       CONSTR10  559
    X89       OBJ       646
    X89       CONSTR1   749
    X89       CONSTR2   838
    X89       CONSTR3   420
    X89       CONSTR4   772
    X89       CONSTR5   564
    X89       CONSTR6   984
    X89       CONSTR7   339
    X89       CONSTR8   390
    X89       CONSTR9   699
    X89       CONSTR10  240
    X90       OBJ       710
    X90       CONSTR1   729
    X90       CONSTR2   791
    X90       CONSTR3   985
    X90       CONSTR4   321
    X90       CONSTR5   107
    X90       CONSTR6   824
    X90       CONSTR7   221
    X90       CONSTR8   242
    X90       CONSTR9   675
    X90       CONSTR10  416
    X91       OBJ       914
    X91       CONSTR1   306
    X91       CONSTR2   539
    X91       CONSTR3   825
    X91       CONSTR4   902
    X91       CONSTR5   132
    X91       CONSTR6   745
    X91       CONSTR7   784
    X91       CONSTR8   472
    X91       CONSTR9   878
    X91       CONSTR10  835
    X92       OBJ       678
    X92       CONSTR1   792
    X92       CONSTR2   218
    X92       CONSTR3   421
    X92       CONSTR4   133
    X92       CONSTR5   19
    X92       CONSTR6   78
    X92       CONSTR7   596
    X92       CONSTR8   742
    X92       CONSTR9   909
    X92       CONSTR10  39
    X93       OBJ       674
    X93       CONSTR1   953
    X93       CONSTR2   589
    X93       CONSTR3   828
    X93       CONSTR4   820
    X93       CONSTR5   989
    X93       CONSTR6   409
    X93       CONSTR7   728
    X93       CONSTR8   823
    X93       CONSTR9   5
    X93       CONSTR10  317
    X94       OBJ       643
    X94       CONSTR1   384
    X94       CONSTR2   345
    X94       CONSTR3   412
    X94       CONSTR4   532
    X94       CONSTR5   272
    X94       CONSTR6   482
    X94       CONSTR7   192
    X94       CONSTR8   588
    X94       CONSTR9   180
    X94       CONSTR10  298
    X95       OBJ       459
    X95       CONSTR1   80
    X95       CONSTR2   549
    X95       CONSTR3   191
    X95       CONSTR4   406
    X95       CONSTR5   116
    X95       CONSTR6   323
    X95       CONSTR7   727
    X95       CONSTR8   229
    X95       CONSTR9   875
    X95       CONSTR10  748
    X96       OBJ       515
    X96       CONSTR1   741
    X96       CONSTR2   365
    X96       CONSTR3   524
    X96       CONSTR4   275
    X96       CONSTR5   694
    X96       CONSTR6   754
    X96       CONSTR7   644
    X96       CONSTR8   46
    X96       CONSTR9   241
    X96       CONSTR10  218
    X97       OBJ       446
    X97       CONSTR1   394
    X97       CONSTR2   740
    X97       CONSTR3   998
    X97       CONSTR4   79
    X97       CONSTR5   824
    X97       CONSTR6   52
    X97       CONSTR7   74
    X97       CONSTR8   627
    X97       CONSTR9   419
    X97       CONSTR10  9
    X98       OBJ       941
    X98       CONSTR1   1000
    X98       CONSTR2   598
    X98       CONSTR3   691
    X98       CONSTR4   364
    X98       CONSTR5   817
    X98       CONSTR6   943
    X98       CONSTR7   542
    X98       CONSTR8   393
    X98       CONSTR9   768
    X98       CONSTR10  366
    X99       OBJ       814
    X99       CONSTR1   70
    X99       CONSTR2   32
    X99       CONSTR3   50
    X99       CONSTR4   20
    X99       CONSTR5   238
    X99       CONSTR6   42
    X99       CONSTR7   771
    X99       CONSTR8   723
    X99       CONSTR9   983
    X99       CONSTR10  755
    X100      OBJ       575
    X100      CONSTR1   869
    X100      CONSTR2   387
    X100      CONSTR3   609
    X100      CONSTR4   188
    X100      CONSTR5   251
    X100      CONSTR6   14
    X100      CONSTR7   561
    X100      CONSTR8   789
    X100      CONSTR9   179
    X100      CONSTR10  745
    INT0001   'MARKER'  'INTEND'
RHS
    RHS10001  CONSTR1   25125
    RHS10001  CONSTR2   28058
    RHS10001  CONSTR3   25836
    RHS10001  CONSTR4   25946
    RHS10001  CONSTR5   24539
    RHS10001  CONSTR6   28051
    RHS10001  CONSTR7   24767
    RHS10001  CONSTR8   26048
    RHS10001  CONSTR9   26101
    RHS10001  CONSTR10  24552
BOUNDS
 BV BND       X1        .00
 BV BND       X2        .00
 BV BND       X3        .00
 BV BND       X4        .00
 BV BND       X5        .00
 BV BND       X6        .00
 BV BND       X7        .00
 BV BND       X8        .00
 BV BND       X9        .00
 BV BND       X10       .00
 BV BND       X11       .00
 BV BND       X12       .00
 BV BND       X13       .00
 BV BND       X14       .00
 BV BND       X15       .00
 BV BND       X16       .00
 BV BND       X17       .00
 BV BND       X18       .00
 BV BND       X19       .00
 BV BND       X20       .00
 BV BND       X21       .00
 BV BND       X22       .00
 BV BND       X23       .00
 BV BND       X24       .00
 BV BND       X25       .00
 BV BND       X26       .00
 BV BND       X27       .00
 BV BND       X28       .00
 BV BND       X29       .00
 BV BND       X30       .00
 BV BND       X31       .00
 BV BND       X32       .00
 BV BND       X33       .00
 BV BND       X34       .00
 BV BND       X35       .00
 BV BND       X36       .00
 BV BND       X37       .00
 BV BND       X38       .00
 BV BND       X39       .00
 BV BND       X40       .00
 BV BND       X41       .00
 BV BND       X42       .00
 BV BND       X43       .00
 BV BND       X44       .00
 BV BND       X45       .00
 BV BND       X46       .00
 BV BND       X47       .00
 BV BND       X48       .00
 BV BND       X49       .00
 BV BND       X50       .00
 BV BND       X51       .00
 BV BND       X52       .00
 BV BND       X53       .00
 BV BND       X54       .00
 BV BND       X55       .00
 BV BND       X56       .00
 BV BND       X57       .00
 BV BND       X58       .00
 BV BND       X59       .00
 BV BND       X60       .00
 BV BND       X61       .00
 BV BND       X62       .00
 BV BND       X63       .00
 BV BND       X64       .00
 BV BND       X65       .00
 BV BND       X66       .00
 BV BND       X67       .00
 BV BND       X68       .00
 BV BND       X69       .00
 BV BND       X70       .00
 BV BND       X71       .00
 BV BND       X72       .00
 BV BND       X73       .00
 BV BND       X74       .00
 BV BND       X75       .00
 BV BND       X76       .00
 BV BND       X77       .00
 BV BND       X78       .00
 BV BND       X79       .00
 BV BND       X80       .00
 BV BND       X81       .00
 BV BND       X82       .00
 BV BND       X83       .00
 BV BND       X84       .00
 BV BND       X85       .00
 BV BND       X86       .00
 BV BND       X87       .00
 BV BND       X88       .00
 BV BND       X89       .00
 BV BND       X90       .00
 BV BND       X91       .00
 BV BND       X92       .00
 BV BND       X93       .00
 BV BND       X94       .00
 BV BND       X95       .00
 BV BND       X96       .00
 BV BND       X97       .00
 BV BND       X98       .00
 BV BND       X99       .00
 BV BND       X100      .00
ENDATA
